321,766
621,406
765,490
698,430
342,160
639,140
762,566
1108,189
512,529
841,325
937,323
1041,406
351,406
593,392
171,406
560,318
914,173
1023,517
468,514
858,59
1069,124
751,503
575,352
646,454
1155,481
829,258
396,498
321,46
